Copyright (C) 2013-2015, Filipe Brandao
Build (method = -2)
  #dp: 952
  Step-3' Graph: 35 vertices and 199 arcs (0.00s)
  Step-4' Graph: 31 vertices and 191 arcs (0.00s)
  #V4/#V3 = 0.89
  #A4/#A3 = 0.96
Ready! (0.00s)
Optimize a model with 102 rows, 192 columns and 520 nonzeros
Found heuristic solution: objective 458
Presolve removed 57 rows and 67 columns
Presolve time: 0.00s
Presolved: 45 rows, 125 columns, 326 nonzeros
Variable types: 0 continuous, 125 integer (0 binary)
Optimize a model with 45 rows, 125 columns and 326 nonzeros
Presolve removed 1 rows and 1 columns
Presolved: 44 rows, 124 columns, 324 nonzeros

Root barrier log...

Ordering time: 0.00s

Barrier statistics:
 AA' NZ     : 1.300e+02
 Factor NZ  : 5.000e+02
 Factor Ops : 6.970e+03 (less than 1 second per iteration)
 Threads    : 1

                  Objective                Residual
Iter       Primal          Dual         Primal    Dual     Compl     Time
   0   2.56700250e+03 -3.13875170e+03  5.08e+03 2.22e-16  8.36e+01     0s
   1   8.38249444e+02 -7.58617435e+02  5.73e+02 4.44e-16  1.14e+01     0s
   2   4.71266021e+02  1.63218250e+02  2.31e-14 4.44e-15  1.16e+00     0s
   3   4.11532412e+02  3.11490109e+02  5.68e-14 2.22e-15  3.76e-01     0s
   4   3.80847463e+02  3.59323520e+02  2.84e-14 4.44e-16  8.09e-02     0s
   5   3.69210990e+02  3.66409303e+02  2.13e-14 3.09e-16  1.05e-02     0s
   6   3.67568256e+02  3.67435818e+02  7.46e-14 3.33e-16  4.98e-04     0s
   7   3.67500008e+02  3.67499994e+02  2.36e-13 2.67e-16  5.16e-08     0s
   8   3.67500000e+02  3.67500000e+02  2.14e-12 3.33e-16  5.16e-11     0s

Barrier solved model in 8 iterations and 0.00 seconds
Optimal objective 3.67500000e+02


Root relaxation: objective 3.675000e+02, 42 iterations, 0.00 seconds

    Nodes    |    Current Node    |     Objective Bounds      |     Work
 Expl Unexpl |  Obj  Depth IntInf | Incumbent    BestBd   Gap | It/Node Time

     0     0  367.50000    0    2  458.00000  367.50000  19.8%     -    0s
H    0     0                     368.0000000  367.50000  0.14%     -    0s

Explored 0 nodes (58 simplex iterations) in 0.00 seconds
Thread count was 1 (of 4 available processors)

Optimal solution found (tolerance 0.00e+00)
Best objective 3.680000000000e+02, best bound 3.680000000000e+02, gap 0.0%
Preprocessing time: 0.00 seconds
Gurobi run time: 0.00 seconds
Total run time: 0.00 seconds
Objective: 368
Solution:
6 x [i=1]
6 x [i=2]
5 x [i=3]
7 x [i=4]
8 x [i=5]
14 x [i=6]
6 x [i=7]
6 x [i=8]
6 x [i=9]
8 x [i=10]
6 x [i=11]
8 x [i=12]
11 x [i=13]
10 x [i=14]
8 x [i=15]
9 x [i=16]
5 x [i=17]
11 x [i=18]
4 x [i=19]
8 x [i=20]
5 x [i=21]
7 x [i=22]
6 x [i=23]
5 x [i=24]
7 x [i=25]
4 x [i=26]
9 x [i=27]
17 x [i=28]
6 x [i=29]
4 x [i=30]
5 x [i=31]
6 x [i=32, i=70]
4 x [i=32, i=71]
3 x [i=33, i=69]
1 x [i=34]
7 x [i=34, i=68]
3 x [i=35, i=67]
3 x [i=35, i=69]
8 x [i=36, i=66]
3 x [i=37]
2 x [i=37, i=65]
1 x [i=37, i=66]
1 x [i=38, i=64]
7 x [i=38, i=65]
6 x [i=39, i=63]
1 x [i=39, i=64]
4 x [i=40, i=62]
6 x [i=41, i=61]
1 x [i=41, i=62]
3 x [i=41, i=64]
3 x [i=42]
5 x [i=42, i=60]
9 x [i=43, i=59]
3 x [i=44, i=58]
1 x [i=45]
8 x [i=45, i=57]
1 x [i=45, i=58]
5 x [i=46, i=56]
7 x [i=47, i=55]
9 x [i=48, i=54]
6 x [i=49, i=53]
1 x [i=50]
1 x [i=50, i=54]
5 x [i=51, i=51]
4 x [i=52, i=54]
3 x [i=53, i=54]
